p tdp 85 84
44 24
14 66
26 15
10 70
84 3
65 69
19 30
20 23
15 76
29 31
85 76
9 4
27 22
67 38
42 33
58 62
33 37
8 11
1 74
64 62
60 47
82 78
25 9
18 6
8 82
83 55
30 1
6 24
57 68
21 16
49 81
50 13
65 32
2 28
77 43
71 75
35 67
66 49
7 20
37 83
79 74
66 9
80 36
8 13
39 52
63 15
72 3
80 5
71 31
51 43
78 45
73 34
40 5
52 34
48 17
57 16
12 84
43 56
53 79
16 31
6 22
43 53
46 32
28 40
33 7
28 8
10 81
76 59
68 79
48 41
59 8
72 25
22 62
80 12
57 48
38 51
61 5
24 54
73 46
42 19
36 62
33 65
40 41
60 48
